objective value:                    -2.09877314587856
h-1,60                                           0.05 	(obj:0)
h-1,61                                           0.05 	(obj:0)
h-1,80                                           0.05 	(obj:0)
h-1,81                                           0.05 	(obj:0)
h-1,109                                          0.05 	(obj:0)
h-1,110                                          0.05 	(obj:0)
h-1,115                                          0.05 	(obj:0)
h-1,116                                          0.05 	(obj:0)
h-1,128                            0.0990196138620377 	(obj:0)
h-1,129                             0.946078431606293 	(obj:0)
h-1,130                             0.377450984716415 	(obj:0)
h-1,132                                          0.05 	(obj:0)
h-1,138                                          0.05 	(obj:0)
h-1,139                                          0.05 	(obj:0)
h-1,156                             0.291176480054855 	(obj:0)
h-1,157                             0.938235294818878 	(obj:0)
h-1,158                             0.271568638086319 	(obj:0)
h-1,162                                          0.05 	(obj:0)
h-1,167                                          0.05 	(obj:0)
h-1,171                                          0.05 	(obj:0)
h-1,174                                          0.05 	(obj:0)
h-1,175                                          0.05 	(obj:0)
h-1,176                                          0.05 	(obj:0)
h-1,184                             0.479411792755127 	(obj:0)
h-1,185                             0.895098042488098 	(obj:0)
h-1,189                                          0.05 	(obj:0)
h-1,190                                          0.05 	(obj:0)
h-1,198                                          0.05 	(obj:0)
h-1,199                                          0.05 	(obj:0)
h-1,200                                          0.05 	(obj:0)
h-1,201                                          0.05 	(obj:0)
h-1,202                                          0.05 	(obj:0)
h-1,203                                          0.05 	(obj:0)
h-1,205                                          0.05 	(obj:0)
h-1,206                                          0.05 	(obj:0)
h-1,211                             0.126470592617989 	(obj:0)
h-1,212                              0.90686274766922 	(obj:0)
h-1,213                             0.638235318660736 	(obj:0)
h-1,214                                          0.05 	(obj:0)
h-1,216                                          0.05 	(obj:0)
h-1,217                                          0.05 	(obj:0)
h-1,225                                          0.05 	(obj:0)
h-1,226                                          0.05 	(obj:0)
h-1,227                                          0.05 	(obj:0)
h-1,228                                          0.05 	(obj:0)
h-1,229                                          0.05 	(obj:0)
h-1,230                                          0.05 	(obj:0)
h-1,231                                          0.05 	(obj:0)
h-1,232                                          0.05 	(obj:0)
h-1,233                                          0.05 	(obj:0)
h-1,234                                          0.05 	(obj:0)
h-1,235                                          0.05 	(obj:0)
h-1,236                                          0.05 	(obj:0)
h-1,238                                          0.05 	(obj:0)
h-1,239                             0.379411774873734 	(obj:0)
h-1,240                                             1 	(obj:0)
h-1,241                              0.29705882370472 	(obj:0)
h-1,242                                          0.05 	(obj:0)
h-1,243                                          0.05 	(obj:0)
h-1,244                                          0.05 	(obj:0)
h-1,247                                          0.05 	(obj:0)
h-1,252                                          0.05 	(obj:0)
h-1,253                                          0.05 	(obj:0)
h-1,254                                          0.05 	(obj:0)
h-1,255                                          0.05 	(obj:0)
h-1,256                                          0.05 	(obj:0)
h-1,257                                          0.05 	(obj:0)
h-1,259                                          0.05 	(obj:0)
h-1,260                                          0.05 	(obj:0)
h-1,261                                          0.05 	(obj:0)
h-1,262                                          0.05 	(obj:0)
h-1,263                                          0.05 	(obj:0)
h-1,264                                          0.05 	(obj:0)
h-1,265                                          0.05 	(obj:0)
h-1,266                                          0.05 	(obj:0)
h-1,267                             0.842156875133514 	(obj:0)
h-1,268                             0.924509811401367 	(obj:0)
h-1,269                            0.0931372560560703 	(obj:0)
h-1,270                                          0.05 	(obj:0)
h-1,271                                          0.05 	(obj:0)
h-1,279                                          0.05 	(obj:0)
h-1,280                                          0.05 	(obj:0)
h-1,281                                          0.05 	(obj:0)
h-1,282                                          0.05 	(obj:0)
h-1,283                                          0.05 	(obj:0)
h-1,284                                          0.05 	(obj:0)
h-1,285                                          0.05 	(obj:0)
h-1,286                                          0.05 	(obj:0)
h-1,287                                          0.05 	(obj:0)
h-1,289                                          0.05 	(obj:0)
h-1,290                                          0.05 	(obj:0)
h-1,291                                          0.05 	(obj:0)
h-1,292                                          0.05 	(obj:0)
h-1,293                                          0.05 	(obj:0)
h-1,294                             0.175490203499794 	(obj:0)
h-1,295                                             1 	(obj:0)
h-1,296                             0.897058832645416 	(obj:0)
h-1,297                                          0.05 	(obj:0)
h-1,298                                          0.05 	(obj:0)
h-1,299                                          0.05 	(obj:0)
h-1,300                                          0.05 	(obj:0)
h-1,301                                          0.05 	(obj:0)
h-1,309                                          0.05 	(obj:0)
h-1,310                                          0.05 	(obj:0)
h-1,311                                          0.05 	(obj:0)
h-1,312                                          0.05 	(obj:0)
h-1,314                                          0.05 	(obj:0)
h-1,315                                          0.05 	(obj:0)
h-1,316                                          0.05 	(obj:0)
h-1,317                                          0.05 	(obj:0)
h-1,318                                          0.05 	(obj:0)
h-1,319                                          0.05 	(obj:0)
h-1,320                                          0.05 	(obj:0)
h-1,322                             0.322549027204514 	(obj:0)
h-1,323                                             1 	(obj:0)
h-1,324                             0.814705896377564 	(obj:0)
h-1,325                                          0.05 	(obj:0)
h-1,326                                          0.05 	(obj:0)
h-1,327                                          0.05 	(obj:0)
h-1,328                                          0.05 	(obj:0)
h-1,329                                          0.05 	(obj:0)
h-1,335                                          0.05 	(obj:0)
h-1,337                                          0.05 	(obj:0)
h-1,338                                          0.05 	(obj:0)
h-1,339                                          0.05 	(obj:0)
h-1,340                                          0.05 	(obj:0)
h-1,344                                          0.05 	(obj:0)
h-1,350                             0.499019634723663 	(obj:0)
h-1,351                             0.946078431606293 	(obj:0)
h-1,352                             0.351960796117783 	(obj:0)
h-1,353                                          0.05 	(obj:0)
h-1,354                                          0.05 	(obj:0)
h-1,355                                          0.05 	(obj:0)
h-1,358                                          0.05 	(obj:0)
h-1,362                                          0.05 	(obj:0)
h-1,363                                          0.05 	(obj:0)
h-1,365                                          0.05 	(obj:0)
h-1,366                                          0.05 	(obj:0)
h-1,367                                          0.05 	(obj:0)
h-1,368                                          0.05 	(obj:0)
h-1,374                                          0.05 	(obj:0)
h-1,375                                          0.05 	(obj:0)
h-1,377                             0.173529413342476 	(obj:0)
h-1,378                             0.879411768913269 	(obj:0)
h-1,379                             0.753921580314636 	(obj:0)
h-1,381                                          0.05 	(obj:0)
h-1,385                                          0.05 	(obj:0)
h-1,388                                          0.05 	(obj:0)
h-1,389                                          0.05 	(obj:0)
h-1,390                                          0.05 	(obj:0)
h-1,391                                          0.05 	(obj:0)
h-1,393                                          0.05 	(obj:0)
h-1,394                                          0.05 	(obj:0)
h-1,396                            0.0382311444670904 	(obj:0)
h-1,399                                          0.05 	(obj:0)
h-1,400                                          0.05 	(obj:0)
h-1,401                                          0.05 	(obj:0)
h-1,402                                          0.05 	(obj:0)
h-1,405                             0.436274510622025 	(obj:0)
h-1,406                                          0.95 	(obj:0)
h-1,407                             0.697058844566345 	(obj:0)
h-1,409                                          0.05 	(obj:0)
h-1,410                                          0.05 	(obj:0)
h-1,411                                          0.05 	(obj:0)
h-1,412                                          0.05 	(obj:0)
h-1,413                                          0.05 	(obj:0)
h-1,414                                          0.05 	(obj:0)
h-1,415                                          0.05 	(obj:0)
h-1,416                                          0.05 	(obj:0)
h-1,417                                          0.05 	(obj:0)
h-1,418                                          0.05 	(obj:0)
h-1,419                                          0.05 	(obj:0)
h-1,421                                          0.05 	(obj:0)
h-1,422                                          0.05 	(obj:0)
h-1,424                                          0.05 	(obj:0)
h-1,425                                          0.05 	(obj:0)
h-1,426                                          0.05 	(obj:0)
h-1,427                                          0.05 	(obj:0)
h-1,428                                          0.05 	(obj:0)
h-1,429                                          0.05 	(obj:0)
h-1,430                                          0.05 	(obj:0)
h-1,433                             0.620588254928589 	(obj:0)
h-1,434                             0.946078431606293 	(obj:0)
h-1,435                             0.367647069692612 	(obj:0)
h-1,436                                          0.05 	(obj:0)
h-1,437                                          0.05 	(obj:0)
h-1,438                                          0.05 	(obj:0)
h-1,439                                          0.05 	(obj:0)
h-1,440                                          0.05 	(obj:0)
h-1,441                                          0.05 	(obj:0)
h-1,442                                          0.05 	(obj:0)
h-1,443                                          0.05 	(obj:0)
h-1,444                                          0.05 	(obj:0)
h-1,445                                          0.05 	(obj:0)
h-1,446                                          0.05 	(obj:0)
h-1,447                                          0.05 	(obj:0)
h-1,452                                          0.05 	(obj:0)
h-1,453                                          0.05 	(obj:0)
h-1,454                                          0.05 	(obj:0)
h-1,455                                          0.05 	(obj:0)
h-1,456                                          0.05 	(obj:0)
h-1,457                                          0.05 	(obj:0)
h-1,460                            0.0441176488995552 	(obj:0)
h-1,461                             0.859803926944733 	(obj:0)
h-1,462                             0.793137264251709 	(obj:0)
h-1,463                                          0.05 	(obj:0)
h-1,464                                          0.05 	(obj:0)
h-1,465                                          0.05 	(obj:0)
h-1,466                                          0.05 	(obj:0)
h-1,467                                          0.05 	(obj:0)
h-1,468                                          0.05 	(obj:0)
h-1,469                                          0.05 	(obj:0)
h-1,470                                          0.05 	(obj:0)
h-1,472                                          0.05 	(obj:0)
h-1,473                                          0.05 	(obj:0)
h-1,474                                          0.05 	(obj:0)
h-1,475                                          0.05 	(obj:0)
h-1,481                                          0.05 	(obj:0)
h-1,482                                          0.05 	(obj:0)
h-1,483                                          0.05 	(obj:0)
h-1,484                                          0.05 	(obj:0)
h-1,488                             0.420588237047195 	(obj:0)
h-1,489                                             1 	(obj:0)
h-1,490                             0.673529434204102 	(obj:0)
h-1,491                                          0.05 	(obj:0)
h-1,492                                          0.05 	(obj:0)
h-1,493                                          0.05 	(obj:0)
h-1,494                                          0.05 	(obj:0)
h-1,495                                          0.05 	(obj:0)
h-1,496                                          0.05 	(obj:0)
h-1,497                                          0.05 	(obj:0)
h-1,498                                          0.05 	(obj:0)
h-1,500                                          0.05 	(obj:0)
h-1,501                                          0.05 	(obj:0)
h-1,502                                          0.05 	(obj:0)
h-1,503                                          0.05 	(obj:0)
h-1,508                                          0.05 	(obj:0)
h-1,509                                          0.05 	(obj:0)
h-1,511                                          0.05 	(obj:0)
h-1,512                                          0.05 	(obj:0)
h-1,514                                          0.05 	(obj:0)
h-1,515                                          0.05 	(obj:0)
h-1,516                             0.642156887054443 	(obj:0)
h-1,517                                             1 	(obj:0)
h-1,518                             0.606862771511078 	(obj:0)
h-1,519                                          0.05 	(obj:0)
h-1,520                                          0.05 	(obj:0)
h-1,521                                          0.05 	(obj:0)
h-1,522                                          0.05 	(obj:0)
h-1,523                                          0.05 	(obj:0)
h-1,525                                          0.05 	(obj:0)
h-1,526                                          0.05 	(obj:0)
h-1,528                                          0.05 	(obj:0)
h-1,529                                          0.05 	(obj:0)
h-1,533                                          0.05 	(obj:0)
h-1,536                                          0.05 	(obj:0)
h-1,537                                          0.05 	(obj:0)
h-1,543                                          0.05 	(obj:0)
h-1,544                             0.944117653369904 	(obj:0)
h-1,545                                             1 	(obj:0)
h-1,546                             0.308823543787003 	(obj:0)
h-1,547                                          0.05 	(obj:0)
h-1,549                                          0.05 	(obj:0)
h-1,551                                          0.05 	(obj:0)
h-1,557                                          0.05 	(obj:0)
h-1,564                                          0.05 	(obj:0)
h-1,565                                          0.05 	(obj:0)
h-1,571                             0.189215686917305 	(obj:0)
h-1,572                             0.934313726425171 	(obj:0)
h-1,573                             0.946078431606293 	(obj:0)
h-1,574                             0.208823543787003 	(obj:0)
h-1,584                                          0.05 	(obj:0)
h-1,585                                          0.05 	(obj:0)
h-1,592                                          0.05 	(obj:0)
h-1,593                                          0.05 	(obj:0)
h-1,599                             0.502941203117371 	(obj:0)
h-1,600                             0.946078431606293 	(obj:0)
h-1,601                             0.753921580314636 	(obj:0)
h-1,604                                          0.05 	(obj:0)
h-1,611                                          0.05 	(obj:0)
h-1,612                                          0.05 	(obj:0)
h-1,613                                          0.05 	(obj:0)
h-1,614                                          0.05 	(obj:0)
h-1,621                                          0.05 	(obj:0)
h-1,624                                          0.05 	(obj:0)
h-1,625                                          0.05 	(obj:0)
h-1,627                             0.793137264251709 	(obj:0)
h-1,628                             0.946078431606293 	(obj:0)
h-1,629                             0.424509805440903 	(obj:0)
h-1,640                                          0.05 	(obj:0)
h-1,641                                          0.05 	(obj:0)
h-1,642                                          0.05 	(obj:0)
h-1,649                                          0.05 	(obj:0)
h-1,650                                          0.05 	(obj:0)
h-1,651                                          0.05 	(obj:0)
h-1,655                             0.726470601558685 	(obj:0)
h-1,656                             0.640196096897125 	(obj:0)
h-1,668                                          0.05 	(obj:0)
h-1,669                                          0.05 	(obj:0)
h-1,670                                          0.05 	(obj:0)
h-1,676                                          0.05 	(obj:0)
h-1,677                                          0.05 	(obj:0)
h-1,678                                          0.05 	(obj:0)
h-1,679                                          0.05 	(obj:0)
h-1,689                                          0.05 	(obj:0)
h-1,696                                          0.05 	(obj:0)
h-1,703                                          0.05 	(obj:0)
h-1,704                                          0.05 	(obj:0)
h-1,705                                          0.05 	(obj:0)
h-1,706                                          0.05 	(obj:0)
h-1,707                                          0.05 	(obj:0)
h-1,708                                          0.05 	(obj:0)
h-1,711                                          0.05 	(obj:0)
h-1,712                                          0.05 	(obj:0)
h-1,716                                          0.05 	(obj:0)
h-1,735                                          0.05 	(obj:0)
h-1,736                                          0.05 	(obj:0)
h-1,737                                          0.05 	(obj:0)
h-1,738                                          0.05 	(obj:0)
h-1,741                                          0.05 	(obj:0)
h-1,742                                          0.05 	(obj:0)
h-1,743                                          0.05 	(obj:0)
h-1,744                                          0.05 	(obj:0)
h-1,747                                          0.05 	(obj:0)
h-1,752                                          0.05 	(obj:0)
h-1,762                                          0.05 	(obj:0)
h-1,763                                          0.05 	(obj:0)
h-1,764                                          0.05 	(obj:0)
h-1,765                                          0.05 	(obj:0)
h-1,766                                          0.05 	(obj:0)
h-1,769                                          0.05 	(obj:0)
h-1,770                                          0.05 	(obj:0)
h-1,772                                          0.05 	(obj:0)
h-1,773                                          0.05 	(obj:0)
h-1,774                                          0.05 	(obj:0)
h-1,775                                          0.05 	(obj:0)
h-1,777                                          0.05 	(obj:0)
h-1,778                                          0.05 	(obj:0)
h-1,779                                          0.05 	(obj:0)
z0,0                                -2.77125949785547 	(obj:0)
z0,1                                 0.96113774805351 	(obj:0)
a0,1                                 0.96113774805351 	(obj:0)
z0,2                                 2.89177808043614 	(obj:0)
a0,2                                 2.89177808043614 	(obj:0)
z0,3                              0.00551090777971445 	(obj:0)
a0,3                              0.00551090777971445 	(obj:0)
z0,4                                -2.67180091137927 	(obj:0)
z0,5                                 3.45241623790977 	(obj:0)
a0,5                                 3.45241623790977 	(obj:0)
z0,6                                 3.43530096980832 	(obj:0)
a0,6                                 3.43530096980832 	(obj:0)
z0,7                                 1.12279181800741 	(obj:0)
a0,7                                 1.12279181800741 	(obj:0)
z0,8                               -0.648360781825345 	(obj:0)
z0,9                                0.454627159955962 	(obj:0)
a0,9                                0.454627159955962 	(obj:0)
z1,0                                 3.83055659646741 	(obj:0)
a1,0                                 3.83055659646741 	(obj:0)
z1,1                               -0.102784510355328 	(obj:0)
z1,2                                 2.98556517870504 	(obj:0)
a1,2                                 2.98556517870504 	(obj:0)
z1,3                                 3.02236145973048 	(obj:0)
a1,3                                 3.02236145973048 	(obj:0)
z1,4                                 2.79319980452239 	(obj:0)
a1,4                                 2.79319980452239 	(obj:0)
z1,5                               -0.398058985324299 	(obj:0)
z1,6                                 3.31305276851065 	(obj:0)
a1,6                                 3.31305276851065 	(obj:0)
z1,7                                 2.68633738225781 	(obj:0)
a1,7                                 2.68633738225781 	(obj:0)
z1,8                                   1.657735931206 	(obj:0)
a1,8                                   1.657735931206 	(obj:0)
z2,0                                -4.81313983898036 	(obj:0)
z2,1                                  5.7854773260948 	(obj:0)
a2,1                                  5.7854773260948 	(obj:-1)
z2,2                                 2.64698514978901 	(obj:0)
a2,2                                 2.64698514978901 	(obj:0)
z2,3                                 1.90446801954785 	(obj:0)
a2,3                                 1.90446801954785 	(obj:0)
z2,4                                -2.72209819795088 	(obj:0)
z2,5                                -1.92524775316237 	(obj:0)
z2,6                                -2.73461814196387 	(obj:0)
z2,7                                 3.68670418021625 	(obj:0)
a2,7                                 3.68670418021625 	(obj:1)
z2,8                                 1.29448574905394 	(obj:0)
a2,8                                 1.29448574905394 	(obj:0)
z2,9                                -2.04679674386491 	(obj:0)
